param n =  5;
param m =   2;
param MM:=
1	112
2	109;

param AA:=
1	6
2	8
3	8
4	30
5	14;

param a:
	1	2	3	4	5 =
1	251	144	116	260	167
2	253	112	234	182	194;
param c:
	1	2	3	4	5 =
1	1	1	4	4	7
2	10	10	4	10	10;

param mm_:
	1	2	3	4	5 =
1	0	0	0	0	0
2	0	0	0	0	0;
